30
1000 1000
70 617
880 261
576 663
800 36
769 86
189 758
827 83
842 815
72 316
585 509
423 624
749 458
788 121
851 740
304 463
940 259
541 508
436 581
591 242
175 651
218 446
690 773
646 411
514 785
654 369
974 298
858 479
352 98
815 263
674 28
